% Generated by MiniZinc 2.9.3
% Solver library: /home/icwmmarijnisse/Pumpkin/minizinc/lib
% Command line invocation: minizinc --compile --fzn ./instance.fzn --ozn ./instance.ozn --solver pumpkin ../../../../benchmarks/models/rcpsp/rcpsp_smaller.mzn ../../../../benchmarks/models/rcpsp/J60_41_9.dzn 

predicate pumpkin_cumulative(array [int] of var int: s,array [int] of int: d,array [int] of int: r,int: b);
array [1..2] of int: X_INTRODUCED_79_ = [1,-1];
array [1..13] of int: X_INTRODUCED_93_ = [3,10,9,2,4,2,7,10,2,1,8,8,10];
array [1..13] of int: X_INTRODUCED_94_ = [5,6,9,8,8,4,9,3,4,2,10,2,10];
var 0..374: X_INTRODUCED_16_;
var 0..374: X_INTRODUCED_17_;
var 0..374: X_INTRODUCED_18_;
var 0..374: X_INTRODUCED_19_;
var 0..374: X_INTRODUCED_20_;
var 0..374: X_INTRODUCED_21_;
var 0..374: X_INTRODUCED_22_;
var 0..374: X_INTRODUCED_23_;
var 0..374: X_INTRODUCED_24_;
var 0..374: X_INTRODUCED_25_;
var 0..374: X_INTRODUCED_26_;
var 0..374: X_INTRODUCED_27_;
var 0..374: X_INTRODUCED_28_;
var 0..374: X_INTRODUCED_29_;
var 0..374: X_INTRODUCED_30_;
var 0..374: X_INTRODUCED_31_;
var 0..374: X_INTRODUCED_32_;
var 0..374: X_INTRODUCED_33_;
var 0..374: X_INTRODUCED_34_;
var 0..374: X_INTRODUCED_35_;
var 0..374: X_INTRODUCED_36_;
var 0..374: X_INTRODUCED_37_;
var 0..374: X_INTRODUCED_38_;
var 0..374: X_INTRODUCED_39_;
var 0..374: X_INTRODUCED_40_;
var 0..374: X_INTRODUCED_41_;
var 0..374: X_INTRODUCED_42_;
var 0..374: X_INTRODUCED_43_;
var 0..374: X_INTRODUCED_44_;
var 0..374: X_INTRODUCED_45_;
var 0..374: X_INTRODUCED_46_;
var 0..374: X_INTRODUCED_47_;
var 0..374: X_INTRODUCED_48_;
var 0..374: X_INTRODUCED_49_;
var 0..374: X_INTRODUCED_50_;
var 0..374: X_INTRODUCED_51_;
var 0..374: X_INTRODUCED_52_;
var 0..374: X_INTRODUCED_53_;
var 0..374: X_INTRODUCED_54_;
var 0..374: X_INTRODUCED_55_;
var 0..374: X_INTRODUCED_56_;
var 0..374: X_INTRODUCED_57_;
var 0..374: X_INTRODUCED_58_;
var 0..374: X_INTRODUCED_59_;
var 0..374: X_INTRODUCED_60_;
var 0..374: X_INTRODUCED_61_;
var 0..374: X_INTRODUCED_62_;
var 0..374: X_INTRODUCED_63_;
var 0..374: X_INTRODUCED_64_;
var 0..374: X_INTRODUCED_65_;
var 0..374: X_INTRODUCED_66_;
var 0..374: X_INTRODUCED_67_;
var 0..374: X_INTRODUCED_68_;
var 0..374: X_INTRODUCED_69_;
var 0..374: X_INTRODUCED_70_;
var 0..374: X_INTRODUCED_71_;
var 0..374: X_INTRODUCED_72_;
var 0..374: X_INTRODUCED_73_;
var 0..374: X_INTRODUCED_74_;
var 0..374: X_INTRODUCED_75_;
var 0..375: Objective:: output_var;
array [1..60] of var int: Start:: output_array([1..60]) = [X_INTRODUCED_16_,X_INTRODUCED_17_,X_INTRODUCED_18_,X_INTRODUCED_19_,X_INTRODUCED_20_,X_INTRODUCED_21_,X_INTRODUCED_22_,X_INTRODUCED_23_,X_INTRODUCED_24_,X_INTRODUCED_25_,X_INTRODUCED_26_,X_INTRODUCED_27_,X_INTRODUCED_28_,X_INTRODUCED_29_,X_INTRODUCED_30_,X_INTRODUCED_31_,X_INTRODUCED_32_,X_INTRODUCED_33_,X_INTRODUCED_34_,X_INTRODUCED_35_,X_INTRODUCED_36_,X_INTRODUCED_37_,X_INTRODUCED_38_,X_INTRODUCED_39_,X_INTRODUCED_40_,X_INTRODUCED_41_,X_INTRODUCED_42_,X_INTRODUCED_43_,X_INTRODUCED_44_,X_INTRODUCED_45_,X_INTRODUCED_46_,X_INTRODUCED_47_,X_INTRODUCED_48_,X_INTRODUCED_49_,X_INTRODUCED_50_,X_INTRODUCED_51_,X_INTRODUCED_52_,X_INTRODUCED_53_,X_INTRODUCED_54_,X_INTRODUCED_55_,X_INTRODUCED_56_,X_INTRODUCED_57_,X_INTRODUCED_58_,X_INTRODUCED_59_,X_INTRODUCED_60_,X_INTRODUCED_61_,X_INTRODUCED_62_,X_INTRODUCED_63_,X_INTRODUCED_64_,X_INTRODUCED_65_,X_INTRODUCED_66_,X_INTRODUCED_67_,X_INTRODUCED_68_,X_INTRODUCED_69_,X_INTRODUCED_70_,X_INTRODUCED_71_,X_INTRODUCED_72_,X_INTRODUCED_73_,X_INTRODUCED_74_,X_INTRODUCED_75_];
array [1..9] of var int: X_INTRODUCED_89_ ::var_is_introduced  = [X_INTRODUCED_16_,X_INTRODUCED_18_,X_INTRODUCED_19_,X_INTRODUCED_21_,X_INTRODUCED_22_,X_INTRODUCED_25_,X_INTRODUCED_26_,X_INTRODUCED_27_,X_INTRODUCED_28_];
array [1..10] of var int: X_INTRODUCED_92_ ::var_is_introduced  = [X_INTRODUCED_17_,X_INTRODUCED_18_,X_INTRODUCED_19_,X_INTRODUCED_20_,X_INTRODUCED_21_,X_INTRODUCED_23_,X_INTRODUCED_24_,X_INTRODUCED_25_,X_INTRODUCED_26_,X_INTRODUCED_29_];
array [1..13] of var int: X_INTRODUCED_95_ ::var_is_introduced  = [X_INTRODUCED_16_,X_INTRODUCED_17_,X_INTRODUCED_18_,X_INTRODUCED_19_,X_INTRODUCED_20_,X_INTRODUCED_21_,X_INTRODUCED_22_,X_INTRODUCED_23_,X_INTRODUCED_24_,X_INTRODUCED_25_,X_INTRODUCED_26_,X_INTRODUCED_27_,X_INTRODUCED_28_];
array [1..10] of var int: X_INTRODUCED_98_ ::var_is_introduced  = [X_INTRODUCED_16_,X_INTRODUCED_17_,X_INTRODUCED_18_,X_INTRODUCED_19_,X_INTRODUCED_22_,X_INTRODUCED_23_,X_INTRODUCED_24_,X_INTRODUCED_27_,X_INTRODUCED_28_,X_INTRODUCED_29_];
array [1..15] of var int: X_INTRODUCED_100_ ::var_is_introduced  = [X_INTRODUCED_16_,X_INTRODUCED_17_,X_INTRODUCED_18_,X_INTRODUCED_19_,X_INTRODUCED_20_,X_INTRODUCED_21_,X_INTRODUCED_22_,X_INTRODUCED_23_,X_INTRODUCED_24_,X_INTRODUCED_25_,X_INTRODUCED_26_,X_INTRODUCED_27_,X_INTRODUCED_28_,X_INTRODUCED_29_,Objective];
constraint int_lin_le(X_INTRODUCED_79_,[X_INTRODUCED_16_,X_INTRODUCED_19_],-5);
constraint int_lin_le(X_INTRODUCED_79_,[X_INTRODUCED_16_,X_INTRODUCED_20_],-5);
constraint int_lin_le(X_INTRODUCED_79_,[X_INTRODUCED_16_,X_INTRODUCED_21_],-5);
constraint int_lin_le(X_INTRODUCED_79_,[X_INTRODUCED_17_,X_INTRODUCED_23_],-6);
constraint int_lin_le(X_INTRODUCED_79_,[X_INTRODUCED_17_,X_INTRODUCED_24_],-6);
constraint int_lin_le(X_INTRODUCED_79_,[X_INTRODUCED_18_,X_INTRODUCED_25_],-9);
constraint int_lin_le(X_INTRODUCED_79_,[X_INTRODUCED_18_,X_INTRODUCED_27_],-9);
constraint int_lin_le(X_INTRODUCED_79_,[X_INTRODUCED_18_,X_INTRODUCED_29_],-9);
constraint int_lin_le(X_INTRODUCED_79_,[X_INTRODUCED_19_,X_INTRODUCED_22_],-8);
constraint int_lin_le(X_INTRODUCED_79_,[X_INTRODUCED_19_,X_INTRODUCED_28_],-8);
constraint int_lin_le(X_INTRODUCED_79_,[X_INTRODUCED_20_,X_INTRODUCED_22_],-8);
constraint int_lin_le(X_INTRODUCED_79_,[X_INTRODUCED_23_,X_INTRODUCED_25_],-3);
constraint int_lin_le(X_INTRODUCED_79_,[X_INTRODUCED_24_,X_INTRODUCED_26_],-4);
constraint int_lin_le(X_INTRODUCED_79_,[X_INTRODUCED_27_,X_INTRODUCED_28_],-2);
constraint pumpkin_cumulative(X_INTRODUCED_89_,[5,9,8,4,9,2,10,2,10],[9,10,4,5,1,4,9,7,8],15);
constraint pumpkin_cumulative(X_INTRODUCED_92_,[6,9,8,8,4,3,4,2,10,4],[10,2,5,8,8,4,1,4,2,2],17);
constraint pumpkin_cumulative(X_INTRODUCED_95_,X_INTRODUCED_94_,X_INTRODUCED_93_,22);
constraint pumpkin_cumulative(X_INTRODUCED_98_,[5,6,9,8,9,3,4,2,10,4],[9,2,6,10,4,3,9,9,8,9],16);
solve :: int_search(X_INTRODUCED_100_,smallest,indomain_min,complete) minimize Objective;
